nNurses = 133;
nHours = 29;
minHours = 9;
maxHours = 9;
maxConsec = 8;
maxPresence = 19;
demand = [9, 6, 8, 11, 8, 9, 10, 14, 18, 18, 22, 21, 20, 17, 20, 19, 23, 21, 19, 20, 18, 19, 19, 16, 17, 13, 12, 15, 14];
